500
1000
798
798
796
793
792
791
791
791
791
789
788
787
785
782
782
782
782
780
778
776
775
774
773
772
772
771
771
770
770
766
766
764
763
757
752
751
750
750
747
745
741
740
739
737
736
734
729
729
724
722
718
714
713
709
708
703
703
701
698
697
696
693
693
693
692
687
686
686
684
683
683
682
677
677
677
676
676
675
675
675
673
671
671
671
670
670
670
667
665
662
662
661
661
658
657
655
655
652
650
649
646
645
642
640
640
640
638
638
638
637
635
635
634
632
632
632
631
630
628
626
625
625
624
624
623
623
621
621
618
617
614
610
608
607
606
605
602
600
600
599
599
597
593
593
593
592
590
587
586
586
585
584
582
580
580
579
577
576
576
575
574
573
572
572
570
570
569
569
559
559
557
554
554
554
553
552
551
551
550
549
549
548
547
546
545
541
539
535
535
534
534
532
532
531
531
529
529
528
526
526
526
525
525
525
522
522
521
521
520
519
515
515
515
512
511
509
506
506
503
502
501
500
499
498
497
496
494
493
493
491
491
491
489
489
489
488
486
486
484
484
484
481
481
480
476
476
475
474
474
473
471
468
468
467
465
463
462
461
458
456
453
453
452
451
451
450
448
447
447
447
446
446
444
443
441
440
439
438
437
433
433
432
429
429
428
427
427
426
425
424
424
419
418
417
417
416
416
415
413
407
406
404
403
402
399
399
399
398
397
396
394
394
393
392
390
389
389
387
386
385
382
382
381
378
377
376
375
375
373
371
368
367
367
365
365
365
364
362
362
360
358
357
352
351
351
349
346
345
340
339
338
337
337
335
334
331
330
327
324
323
320
318
314
311
301
301
301
298
295
295
293
293
292
292
290
289
289
282
282
280
279
277
277
277
276
274
270
269
268
268
267
266
266
265
264
264
263
262
261
260
259
258
255
252
250
249
248
247
246
242
240
238
237
237
235
234
234
227
227
227
224
220
219
219
218
214
213
210
210
207
205
205
205
203
202
200
198
195
194
192
190
190
190
189
189
188
186
182
179
179
178
177
176
173
173
172
171
169
164
164
164
160
159
158
155
153
151
144
144
142
141
140
140
140
137
133
132
131
131
130
128
123
123
121
120
120
117
116
115
112
112
112
111
110
107
107
105
105
100
100
